
******************************************************************************
This program contains Ipopt, a library for large-scale nonlinear optimization.
 Ipopt is released as open source code under the Eclipse Public License (EPL).
         For more information visit http://projects.coin-or.org/Ipopt
******************************************************************************

This is Ipopt version 3.12.6, running with linear solver ma57.

Number of nonzeros in equality constraint Jacobian...:        0
Number of nonzeros in inequality constraint Jacobian.:        0
Number of nonzeros in Lagrangian Hessian.............:    28616

Total number of variables............................:     9604
                     variables with only lower bounds:        0
                variables with lower and upper bounds:     9604
                     variables with only upper bounds:        0
Total number of equality constraints.................:        0
Total number of inequality constraints...............:        0
        inequality constraints with only lower bounds:        0
   inequality constraints with lower and upper bounds:        0
        inequality constraints with only upper bounds:        0

iter    objective    inf_pr   inf_du lg(mu)  ||d||  lg(rg) alpha_du alpha_pr  ls
   0  1.5380706e+01 0.00e+00 5.22e-02  -1.0 0.00e+00    -  0.00e+00 0.00e+00   0
   1  1.5402190e+01 0.00e+00 7.84e-02  -1.0 9.95e-02    -  1.00e+00 2.00e-01f  1
   2  1.4606400e+01 0.00e+00 3.27e-02  -2.5 8.10e-02    -  5.84e-01 1.00e+00f  1
   3  1.2027475e+01 0.00e+00 2.66e-02  -2.5 4.00e-01    -  5.46e-01 1.00e+00f  1
   4  9.7000082e+00 0.00e+00 1.00e-02  -2.5 2.79e-01    -  7.05e-01 1.00e+00f  1
   5  8.8986753e+00 0.00e+00 5.24e-03  -3.8 1.07e-01    -  6.89e-01 1.00e+00f  1
   6  8.3184093e+00 0.00e+00 3.16e-03  -3.8 1.05e-01    -  7.43e-01 1.00e+00f  1
   7  7.8427112e+00 0.00e+00 4.01e-03  -3.8 5.95e-02    -  6.98e-01 1.00e+00f  1
   8  7.6062025e+00 0.00e+00 3.46e-16  -3.8 1.97e-02    -  1.00e+00 1.00e+00f  1
   9  7.3878003e+00 0.00e+00 7.58e-04  -5.7 1.25e-02    -  7.95e-01 1.00e+00f  1
iter    objective    inf_pr   inf_du lg(mu)  ||d||  lg(rg) alpha_du alpha_pr  ls
  10  7.2987513e+00 0.00e+00 5.07e-04  -5.7 1.19e-02    -  8.21e-01 9.23e-01f  1
  11  7.2786597e+00 0.00e+00 3.87e-16  -5.7 5.56e-03    -  1.00e+00 1.00e+00f  1
  12  7.2739184e+00 0.00e+00 2.32e-04  -8.6 2.82e-03    -  8.71e-01 7.38e-01f  1
  13  7.2726627e+00 0.00e+00 4.21e-04  -8.6 1.52e-03    -  9.77e-01 7.13e-01f  1
  14  7.2722962e+00 0.00e+00 2.78e-04  -8.6 7.26e-04    -  1.00e+00 7.25e-01f  1
  15  7.2721803e+00 0.00e+00 7.15e-05  -8.6 3.35e-04    -  1.00e+00 8.68e-01f  1
  16  7.2721624e+00 0.00e+00 3.38e-16  -8.6 1.35e-04    -  1.00e+00 1.00e+00f  1
  17  7.2721580e+00 0.00e+00 3.18e-16  -9.0 5.64e-05    -  1.00e+00 1.00e+00f  1

Number of Iterations....: 17

                                   (scaled)                 (unscaled)
Objective...............:   7.2721579658051354e+00    7.2721579658051354e+00
Dual infeasibility......:   3.1768402475052287e-16    3.1768402475052287e-16
Constraint violation....:   0.0000000000000000e+00    0.0000000000000000e+00
Complementarity.........:   5.2126209238209165e-09    5.2126209238209165e-09
Overall NLP error.......:   5.2126209238209165e-09    5.2126209238209165e-09


Number of objective function evaluations             = 18
Number of objective gradient evaluations             = 18
Number of equality constraint evaluations            = 0
Number of inequality constraint evaluations          = 0
Number of equality constraint Jacobian evaluations   = 0
Number of inequality constraint Jacobian evaluations = 0
Number of Lagrangian Hessian evaluations             = 17
Total CPU secs in IPOPT (w/o function evaluations)   =      0.193
Total CPU secs in NLP function evaluations           =      0.203

EXIT: Optimal Solution Found.
Note: The following floating-point exceptions are signalling: IEEE_UNDERFLOW_FLAG IEEE_DENORMAL

 ** SUBROUTINE CUTEST_csetup: Warning. The problem has no general constraints. 
 ** Other tools may be preferable ** 

************************ CUTEst statistics ************************


 Package used            :  IPOPT
 Problem                 :  OBSTCLBL  
 # variables             =           10000
 # constraints           =               0
 # objective functions   =        0.3700000E+02
 # objective gradients   =        0.1900000E+02
 # objective Hessians    =        0.1800000E+02
 # Hessian-vector prdct  =        0.0000000E+00
 # constraints functions =        0.0000000E+00
 # constraints gradients =        0.0000000E+00
 # constraints Hessians  =        0.0000000E+00
 Exit code               =               0
 Final f                 =   0.7272158E+01
 Set up time             =            0.30 seconds
 Solve time              =            0.41 seconds


******************************************************************

System Time =       0.4070000052 s.
